48397.56,57.12,69.27
50157.94,55.12,66.84
45515.1,60.74,73.66
44337.03,62.35,75.62
43766.62,63.17,76.6
51697.84,53.48,64.85
42380.06,65.23,79.11
46753.0,59.13,71.71
42526.87,65.01,78.83
49326.56,56.05,67.97
48799.52,56.65,68.7
48083.86,57.5,69.72
51403.67,53.78,65.22
41791.97,66.15,80.22
46634.77,59.28,71.89
40135.12,68.88,83.53
49249.32,56.14,68.07
45445.02,60.83,73.77
52420.47,52.74,63.96
54802.03,50.45,61.18
